\ This file was automatically generated by Zimpl
\ set tipoAviao := {1, 2, 3};
\ set destino := {1, 2};
\ param custoViagemRJ[tipoAviao] := <1> 23, <2> 5, <3> 1.4;
\ param custoViagemPOA[tipoAviao] := <1> 58, <2> 10, <3> 3.8;
\ param cargaTransportada[destino] := <1> 150, <2> 100;
\ param disponibilidadeAviao[tipoAviao] := <1> 8, <2> 15, <3> 12;
\ param tonelagemAvioes[tipoAviao] := <1> 45, <2> 7, <3> 4;
\ var quantAvioesRJ[tipoAviao] integer >= 0;
\ var quantAvioesPOA[tipoAviao] integer >= 0;
\ minimize custo :      (sum <t> in tipoAviao : quantAvioesRJ[t] * custoViagemRJ[t]) +     (sum <t> in tipoAviao : quantAvioesP
\ OA[t] * custoViagemPOA[t]);
\ subto cargaTransportadaRJ :     sum <t> in tipoAviao : quantAvioesRJ[t] * tonelagemAvioes[t] >= cargaTransportada[1];
\ subto cargaTransportadaPOA :     sum <t> in tipoAviao : quantAvioesPOA[t] * tonelagemAvioes[t] >= cargaTransportada[2];
\ subto limiteAviao:     forall <t> in tipoAviao :         (quantAvioesRJ[t] + quantAvioesPOA[t]) <= disponibilidadeAviao[t];
\Problem name: file
Minimize
 custo:  +23 quantAvioesRJ#1 +5 quantAvioesRJ#2 +1.4 quantAvioesRJ#3 +58 quantAvioesPOA#1 +10 quantAvioesPOA#2 +3.8 quantAvioesPOA#3
 
Subject to
 cargaTransport@0:
  +4 quantAvioesRJ#3 +7 quantAvioesRJ#2 +45 quantAvioesRJ#1 >= 150
 cargaTransport@1:
  +4 quantAvioesPOA#3 +7 quantAvioesPOA#2 +45 quantAvioesPOA#1 >= 100
 limiteAviao_1:
  + quantAvioesPOA#1 + quantAvioesRJ#1 <= 8
 limiteAviao_2:
  + quantAvioesPOA#2 + quantAvioesRJ#2 <= 15
 limiteAviao_3:
  + quantAvioesPOA#3 + quantAvioesRJ#3 <= 12
Bounds
 0 <= quantAvioesRJ#1 <= +inf
 0 <= quantAvioesRJ#2 <= +inf
 0 <= quantAvioesRJ#3 <= +inf
 0 <= quantAvioesPOA#1 <= +inf
 0 <= quantAvioesPOA#2 <= +inf
 0 <= quantAvioesPOA#3 <= +inf
General
 quantAvioesRJ#1
 quantAvioesRJ#2
 quantAvioesRJ#3
 quantAvioesPOA#1
 quantAvioesPOA#2
 quantAvioesPOA#3
End
